0000000000000000
0000000000000000
0000000000000000
0001111111111000
0011111111111100
0000000000001100
0001000000001100
0011000000001100
0011000000001100
0011000000001100
0011000000001100
0011000000001100
0010000000001000
0000000000000000
0000000000000000
0000000000000000
